(set-logic ALL)
(declare-rel itp (Int Int Int Int))
(declare-rel simple!!query ())
(declare-var X Int)
(declare-var Y Int)
(declare-var Z Int)
(declare-var W Int)
(declare-var X1 Int)
(declare-var Y1 Int)
(declare-var Z1 Int)
(declare-var W1 Int)
(rule (=> (and (>= X 0) (>= Y X) (= Z 0) (= W 0)) (itp X Y Z W)))
(rule (=> (and (itp X Y Z W) (< W Y) (= Z1 (+ Z X)) (= W1 (+ W 1))) (itp X Y Z1 W1)))
(rule (=> (and (itp X Y Z W) (not (< W Y)) (not (= Z (* X Y)))) simple!!query))
(query simple!!query)
